c Output_time 26.03.2020 18:13:12_+0100 1585242792362470545
c ** Program information **
c program_name                          "QBRG_debug"
c version                               "0.3.20"
c date                                  "25.3.2020"
c gid_id                                "673970833836058123f633335630c185360d632e"
c author                                "Oliver Kullmann"
c url                                   "https://github.com/OKullmann/oklibrary/blob/master/Satisfiability/Transformers/Generators/Random/QBRG.cpp"
c ** Machine information **
c machine_name                          "chyna-Lenovo-G50-70"
c bogomips                              3791.08
c ** Compilation information **
c compiler_version                      "g++ 7.5.0"
c compilation_date                      "Mar_26_2020 11:16:30"
c compilation_options                   "--std=c++17 -pedantic -fmax-errors=5 -Wall -Wextra -g -D_GLIBCXX_DEBUG"
c NDEBUG                                0
c OPTIMIZE                              0
c ** Parameters **
c command-line                          "./QBRG_debug" "e40 a40 40" "249*1,1|2-2,1|3-3,1" "" "1,t" ""
c output                                "QuBlRaGe_120_249_1585242792362312249.qdimacs"
c options                               "filtered,renamed"
c num_quantifier_blocks                 3
c  quantifier_blocks                    1:e1-40 2:a41-80 3:e81-120
c num_clause-blocks                     1
c  clause-blocks                        249 * {1-40,1,1/2} | {41-80,1,1/2} | {81-120,1,1/2}
c num_e-seeds                           30+2=32
c  e-seeds                              1 0 1 0 4 120 2 40 1 40 0 40 1 249 3 1 1 1 1 2 2 2 1 1 2 3 3 1 1 2 1 1585242792362311722
p cnf 120 249
e 1 2 3 4 5 6 7 8 9 10 11 12 13 14 15 16 17 18 19 20 21 22 23 24 25 26 27 28 29 30 31 32 33 34 35 36 37 38 39 40 0
a 41 42 43 44 45 46 47 48 49 50 51 52 53 54 55 56 57 58 59 60 61 62 63 64 65 66 67 68 69 70 71 72 73 74 75 76 77 78 79 80 0
e 81 82 83 84 85 86 87 88 89 90 91 92 93 94 95 96 97 98 99 100 101 102 103 104 105 106 107 108 109 110 111 112 113 114 115 116 117 118 119 120 0
20 -41 -81 0
-39 -46 -81 0
-2 -65 -81 0
6 -68 -81 0
-24 78 -81 0
-20 -60 81 0
31 75 81 0
26 54 82 0
11 65 82 0
-11 -47 -83 0
2 51 -83 0
-4 47 83 0
7 50 83 0
10 -71 83 0
-31 53 -84 0
5 -71 -84 0
-16 55 84 0
-29 -44 -85 0
6 50 -85 0
-36 50 -85 0
-2 -55 -85 0
-37 61 -85 0
-14 -63 -85 0
-10 -73 -85 0
10 51 85 0
-26 -54 85 0
-26 -56 85 0
29 71 85 0
-23 71 -86 0
9 44 86 0
26 45 86 0
-21 64 86 0
-6 73 86 0
-7 -48 -87 0
-19 63 -87 0
-39 -69 -87 0
-10 -46 87 0
-34 67 -88 0
32 -75 -88 0
18 74 88 0
-12 58 -89 0
-1 -73 -89 0
5 -74 -89 0
-21 80 -89 0
29 80 -89 0
11 41 89 0
-38 50 89 0
-28 63 89 0
-34 74 89 0
31 -47 -90 0
-7 -78 -90 0
-23 79 -90 0
40 -45 90 0
-12 -61 90 0
28 78 90 0
-35 76 -91 0
-39 50 91 0
33 -60 -92 0
9 -64 -92 0
28 65 -92 0
23 -41 92 0
-34 -41 92 0
-1 -46 92 0
-24 57 92 0
28 -61 92 0
15 67 92 0
-1 -41 -93 0
19 -44 -93 0
40 -54 -93 0
25 -68 -93 0
30 -70 -93 0
-16 -42 93 0
10 43 93 0
-9 51 93 0
37 55 93 0
3 -64 93 0
40 41 -94 0
7 43 -94 0
-31 -50 -94 0
-12 59 -94 0
27 77 -94 0
7 44 94 0
-10 -77 94 0
-31 41 -95 0
36 52 -95 0
28 -47 95 0
-22 51 95 0
-10 -61 95 0
-34 44 -96 0
-16 59 -96 0
5 62 -96 0
37 64 -96 0
35 -50 96 0
5 51 96 0
27 77 96 0
23 -46 -97 0
9 58 -97 0
-37 59 -97 0
-9 61 -97 0
15 44 97 0
-4 -46 97 0
-12 -66 97 0
-7 -76 97 0
-5 -53 -98 0
22 -56 -98 0
-6 -74 -98 0
30 -44 98 0
-22 45 98 0
-4 56 98 0
-29 68 98 0
12 -78 98 0
35 -58 -99 0
-33 -60 -99 0
2 65 -99 0
25 -44 99 0
-4 -55 99 0
23 -79 99 0
-4 41 -100 0
33 -43 100 0
-34 53 100 0
7 -74 100 0
-13 48 -101 0
-8 -55 -101 0
11 66 -101 0
27 70 -101 0
4 70 101 0
6 47 -102 0
-1 -59 -102 0
20 -66 -102 0
33 -69 -102 0
16 -77 -102 0
2 -52 102 0
38 -62 102 0
35 -57 -103 0
-15 59 -103 0
-39 69 -103 0
7 -71 -103 0
-7 -72 -103 0
-3 56 103 0
12 -69 103 0
-10 -70 103 0
25 79 103 0
32 43 -104 0
27 49 -104 0
-15 -80 -104 0
-37 44 104 0
13 -59 104 0
38 -42 -105 0
15 -63 -105 0
-16 71 -105 0
11 41 105 0
4 64 105 0
-36 -66 105 0
-35 54 -106 0
-22 55 -106 0
18 58 -106 0
-31 -63 -106 0
-11 68 -106 0
-8 74 -106 0
-30 -75 106 0
36 -58 -107 0
-17 80 -107 0
-2 -42 107 0
30 47 107 0
10 -55 107 0
11 -55 107 0
-16 66 107 0
26 72 107 0
3 80 107 0
12 59 -108 0
-27 62 -108 0
24 72 -108 0
5 51 108 0
37 63 108 0
-13 -65 108 0
3 -69 -109 0
9 77 -109 0
-11 42 109 0
19 47 109 0
33 51 109 0
2 68 109 0
-18 69 109 0
-19 72 109 0
-10 -60 -110 0
1 -77 -110 0
-3 -42 110 0
-7 55 110 0
-2 -76 110 0
14 -79 110 0
-23 54 -111 0
-8 55 -111 0
35 73 -111 0
29 -76 -111 0
-11 -50 111 0
-24 56 111 0
-4 -57 111 0
28 -58 111 0
36 -64 111 0
38 -54 -112 0
-2 55 -112 0
23 69 -112 0
-37 70 -112 0
-28 -79 -112 0
-37 64 -113 0
3 -68 -113 0
35 74 -113 0
7 76 113 0
35 76 113 0
-37 -58 -114 0
-28 77 -114 0
18 -42 114 0
-26 50 114 0
17 72 114 0
34 45 -115 0
17 54 -115 0
-38 57 -115 0
35 -73 -115 0
-4 -78 -115 0
-12 80 -115 0
7 -41 115 0
21 -43 115 0
-35 -50 115 0
-14 62 115 0
40 -76 115 0
-34 44 -116 0
8 59 -116 0
-3 68 -116 0
-14 74 -116 0
30 74 -116 0
39 77 -116 0
29 50 -117 0
2 -43 117 0
10 -46 117 0
28 48 117 0
21 72 117 0
-39 49 -118 0
35 -50 -118 0
13 50 -118 0
-10 -55 -118 0
-40 57 118 0
28 57 -119 0
-24 -75 -119 0
-10 52 119 0
19 -69 119 0
3 -56 -120 0
-23 47 120 0
-1 53 120 0
-36 55 120 0
-20 77 120 0
